HUN,8,6,982
2,14,0,6,1,27,5,15,3,10,4,13
2,19,1,23,0,1,3,18,4,2,5,6
0,21,2,20,1,30,5,8,3,18,4,23
1,26,0,23,2,24,5,9,3,30,4,7
0,5,2,9,1,18,3,22,4,4,5,22
2,27,0,7,1,22,3,21,4,1,5,24
1,20,2,27,0,8,4,9,3,29,5,4
1,30,0,12,2,9,3,25,5,27,4,6
